SCIP Status        : problem creation / modification
Total Time         :       0.12
  reading          :       0.12
Original Problem   :
  Problem name     : main4.zpl
  Variables        : 10050 (10050 binary, 0 integer, 0 implicit integer, 0 continuous)
  Constraints      : 0 initial, 10250 maximal
  Objective        : minimize, 10050 non-zeros (abs.min = 0.00068, abs.max = 5700)
